(set-logic UF)
(declare-sort Set 0)
(declare-sort Elem 0)
(declare-fun member (Elem Set) Bool)
(declare-fun subset (Set Set) Bool)
(declare-fun seteq (Set Set) Bool)
(declare-fun union (Set Set) Set)
(declare-fun intersection (Set Set) Set)
(declare-fun difference (Set Set) Set)
(declare-fun a () Set)
(declare-fun b () Set)
(assert (not (member (choice ((?x Elem)) (not (or (not (member ?x (intersection a b))) (member ?x (intersection b a))))) b)))
(assert (not (not (and (member (choice ((?x Elem)) (not (or (not (member ?x (intersection a b))) (member ?x (intersection b a))))) a) (member (choice ((?x Elem)) (not (or (not (member ?x (intersection a b))) (member ?x (intersection b a))))) b)))))
(assert (or (not (and (member (choice ((?x Elem)) (not (or (not (member ?x (intersection a b))) (member ?x (intersection b a))))) a) (member (choice ((?x Elem)) (not (or (not (member ?x (intersection a b))) (member ?x (intersection b a))))) b))) (member (choice ((?x Elem)) (not (or (not (member ?x (intersection a b))) (member ?x (intersection b a))))) b)))
(check-sat)
(exit)
